(set-logic HORN)
(declare-rel inv1 ( (Array Int Int) Int Int Int))(declare-rel inv2 ( (Array Int Int) Int Int))(declare-rel fail ( ))(forall ((a (Array Int Int)) (N Int)) (! (=> (> N 0) (inv2 a 0 N)) ))(forall ((a (Array Int Int)) (i Int) (a1 (Array Int Int)) (i1 Int) (N Int))
  (! (=> (and (inv2 a i N) (< i N) (= (store a i i) a1) (= i1 (+ i 1)))
         (inv2 a1 i1 N))
     ))(forall ((i Int) (a (Array Int Int)) (i1 Int) (j1 Int) (N Int))
  (! (=> (and (inv2 a i N) (>= i N) (= i1 0) (= j1 0)) (inv1 a i1 j1 N))
     ))(forall ((j Int) (i Int) (a (Array Int Int)) (i1 Int) (j1 Int) (N Int))
  (! (let ((a!1 (and (inv1 a i j N)
                     (< i N)
                     (= j1 (+ j (select a i)))
                     (= i1 (+ i 1)))))
       (=> a!1 (inv1 a i1 j1 N)))
     ))(forall ((a (Array Int Int)) (i Int) (N Int) (j Int))
  (! (=> (and (inv1 a i j N) (>= i N) (not (>= j 0))) fail) ))(assert (not fail))
(check-sat)